# Solution for model micodag
# Objective value = 8.3517302706535972e+00
s_0_1 0
s_1_0 0
s_0_2 0
s_2_0 0
s_0_4 0
s_4_0 2.0733612009003943e-01
s_1_2 0
s_2_1 3.7115983888373094e-01
s_1_3 0
s_3_1 0.361981383030205
s_2_4 0
s_4_2 3.4344054306394067e-01
s_4_5 0
s_5_4 0.631552159485637
s_0_0 6.4385925775048669e-01
s_1_1 6.3294408640992228e-01
s_2_2 6.1558911353821122e-01
s_3_3 7.6763854743046434e-01
s_4_4 6.6100124288511419e-01
s_5_5 9.3167312858463092e-01
Gamma_0_0 8.0240841081738856e-01
Gamma_0_1 0
Gamma_0_2 0
Gamma_0_3 0
Gamma_0_4 0
Gamma_0_5 0
Gamma_1_0 0
Gamma_1_1 7.9557783177381347e-01
Gamma_1_2 0
Gamma_1_3 0
Gamma_1_4 0
Gamma_1_5 0
Gamma_2_0 0
Gamma_2_1 6.0922888874685810e-01
Gamma_2_2 7.8459487223548163e-01
Gamma_2_3 0
Gamma_2_4 0
Gamma_2_5 0
Gamma_3_0 0
Gamma_3_1 6.0164888683534135e-01
Gamma_3_2 0
Gamma_3_3 0.876149843023706
Gamma_3_4 0
Gamma_3_5 0
Gamma_4_0 -0.455341761855905
Gamma_4_1 0
Gamma_4_2 -5.8603800479486057e-01
Gamma_4_3 0
Gamma_4_4 8.1301982933081907e-01
Gamma_4_5 0
Gamma_5_0 0
Gamma_5_1 0
Gamma_5_2 0
Gamma_5_3 0
Gamma_5_4 -7.9470256038698972e-01
Gamma_5_5 9.6523216304919690e-01
psi_0 2
psi_1 3
psi_2 2
psi_3 0
psi_4 1
psi_5 0
g_0_0 0
g_0_1 0
g_0_2 0
g_0_3 0
g_0_4 0
g_0_5 0
g_1_0 0
g_1_1 0
g_1_2 0
g_1_3 0
g_1_4 0
g_1_5 0
g_2_0 0
g_2_1 1
g_2_2 0
g_2_3 0
g_2_4 0
g_2_5 0
g_3_0 0
g_3_1 1
g_3_2 0
g_3_3 0
g_3_4 0
g_3_5 0
g_4_0 1
g_4_1 0
g_4_2 1
g_4_3 0
g_4_4 0
g_4_5 0
g_5_0 0
g_5_1 0
g_5_2 0
g_5_3 0
g_5_4 1
g_5_5 0
T_0 4.4027512062767471e-01
T_1 4.5737319184534897e-01
T_2 4.8517556148468088e-01
T_3 2.6443629798745860e-01
T_4 4.1399955882191364e-01
T_5 7.0773246216091934e-02
